100 1984
1 2
1 3
1 9
1 12
1 13
1 15
1 17
1 18
1 19
1 23
1 25
1 28
1 29
1 30
1 31
1 37
1 41
1 48
1 50
1 53
1 55
1 56
1 65
1 69
1 72
1 75
1 77
1 78
1 79
1 80
1 84
1 95
1 97
1 98
1 99
1 100
2 10
2 14
2 16
2 21
2 27
2 29
2 30
2 31
2 32
2 38
2 39
2 40
2 41
2 48
2 53
2 55
2 59
2 61
2 66
2 68
2 69
2 70
2 72
2 73
2 74
2 78
2 80
2 83
2 85
2 86
2 89
2 92
2 95
3 4
3 6
3 7
3 10
3 11
3 13
3 17
3 24
3 27
3 28
3 34
3 38
3 41
3 42
3 43
3 44
3 47
3 48
3 49
3 52
3 53
3 54
3 63
3 65
3 68
3 71
3 72
3 73
3 77
3 80
3 81
3 88
3 93
3 99
4 5
4 6
4 7
4 9
4 11
4 13
4 15
4 16
4 17
4 27
4 30
4 31
4 33
4 34
4 35
4 36
4 37
4 39
4 40
4 43
4 48
4 50
4 53
4 55
4 58
4 61
4 62
4 66
4 69
4 71
4 73
4 76
4 78
4 82
4 83
4 84
4 90
4 91
4 92
4 93
4 95
4 96
4 98
4 99
5 6
5 9
5 10
5 11
5 12
5 18
5 23
5 24
5 25
5 28
5 32
5 35
5 36
5 37
5 40
5 42
5 43
5 45
5 46
5 47
5 51
5 52
5 54
5 55
5 59
5 60
5 61
5 62
5 65
5 72
5 74
5 75
5 77
5 79
5 85
5 86
5 88
5 90
5 98
5 99
5 100
6 7
6 8
6 12
6 15
6 18
6 19
6 20
6 21
6 25
6 26
6 28
6 29
6 37
6 38
6 43
6 45
6 47
6 49
6 50
6 51
6 52
6 53
6 55
6 58
6 60
6 63
6 67
6 73
6 74
6 75
6 76
6 79
6 80
6 82
6 83
6 85
6 86
6 89
6 91
6 97
6 100
7 8
7 10
7 11
7 12
7 13
7 14
7 15
7 17
7 18
7 21
7 23
7 32
7 33
7 35
7 42
7 43
7 47
7 51
7 53
7 55
7 57
7 58
7 60
7 65
7 66
7 70
7 72
7 74
7 77
7 78
7 80
7 81
7 83
7 85
7 88
7 93
7 95
7 96
7 99
8 10
8 11
8 12
8 13
8 17
8 19
8 25
8 31
8 32
8 34
8 36
8 37
8 38
8 45
8 47
8 48
8 57
8 59
8 64
8 65
8 67
8 68
8 69
8 71
8 72
8 77
8 80
8 82
8 83
8 87
8 89
8 92
8 93
8 96
8 98
8 99
9 14
9 15
9 17
9 21
9 22
9 23
9 24
9 32
9 33
9 37
9 39
9 41
9 45
9 46
9 47
9 48
9 49
9 50
9 51
9 52
9 53
9 54
9 56
9 61
9 63
9 64
9 69
9 72
9 73
9 74
9 75
9 77
9 82
9 86
9 90
9 94
9 98
10 16
10 19
10 21
10 22
10 23
10 24
10 25
10 27
10 30
10 34
10 35
10 36
10 37
10 38
10 42
10 43
10 48
10 51
10 52
10 53
10 54
10 60
10 61
10 62
10 65
10 67
10 69
10 70
10 72
10 73
10 76
10 77
10 79
10 80
10 82
10 85
10 86
10 88
10 93
10 94
10 100
11 14
11 15
11 18
11 19
11 23
11 25
11 27
11 29
11 30
11 31
11 32
11 37
11 38
11 39
11 44
11 46
11 47
11 48
11 49
11 54
11 55
11 57
11 58
11 59
11 60
11 64
11 68
11 69
11 76
11 77
11 79
11 84
11 85
11 86
11 88
11 95
11 99
11 100
12 14
12 15
12 17
12 18
12 23
12 28
12 32
12 36
12 38
12 39
12 41
12 43
12 44
12 47
12 51
12 52
12 54
12 55
12 60
12 68
12 69
12 72
12 73
12 74
12 80
12 81
12 85
12 89
12 92
12 93
12 94
12 95
12 96
12 97
12 98
12 99
12 100
13 14
13 15
13 19
13 21
13 23
13 26
13 29
13 30
13 38
13 46
13 47
13 48
13 49
13 51
13 56
13 57
13 58
13 61
13 62
13 63
13 65
13 67
13 74
13 76
13 79
13 80
13 84
13 91
13 92
13 93
13 95
13 96
13 99
13 100
14 15
14 22
14 23
14 25
14 28
14 29
14 31
14 33
14 36
14 37
14 41
14 43
14 44
14 45
14 48
14 50
14 51
14 53
14 54
14 55
14 65
14 66
14 67
14 69
14 71
14 75
14 76
14 78
14 83
14 84
14 85
14 87
14 89
14 93
14 97
14 100
15 17
15 18
15 21
15 26
15 27
15 29
15 32
15 33
15 36
15 39
15 40
15 43
15 51
15 61
15 62
15 66
15 70
15 72
15 73
15 75
15 81
15 82
15 84
15 87
15 88
15 89
15 90
15 91
15 94
15 95
16 17
16 19
16 22
16 24
16 26
16 27
16 28
16 29
16 30
16 35
16 38
16 39
16 42
16 43
16 44
16 46
16 47
16 51
16 53
16 55
16 56
16 57
16 59
16 60
16 65
16 69
16 70
16 74
16 84
16 85
16 88
16 90
16 92
16 99
17 18
17 21
17 22
17 23
17 26
17 28
17 31
17 32
17 33
17 34
17 38
17 42
17 49
17 50
17 55
17 57
17 61
17 62
17 65
17 67
17 71
17 75
17 79
17 80
17 81
17 89
17 90
17 91
17 96
17 97
17 99
18 20
18 29
18 30
18 31
18 32
18 33
18 35
18 40
18 43
18 46
18 49
18 59
18 62
18 64
18 66
18 69
18 70
18 75
18 76
18 82
18 83
18 86
18 90
18 94
18 96
18 98
18 100
19 22
19 24
19 26
19 27
19 28
19 29
19 31
19 32
19 34
19 44
19 47
19 48
19 52
19 53
19 57
19 59
19 61
19 64
19 65
19 66
19 68
19 69
19 72
19 73
19 74
19 75
19 76
19 79
19 80
19 82
19 83
19 86
19 90
19 91
19 92
19 94
19 95
19 97
19 98
19 100
20 21
20 23
20 27
20 28
20 30
20 31
20 35
20 37
20 39
20 42
20 45
20 51
20 52
20 53
20 55
20 56
20 57
20 60
20 64
20 65
20 66
20 67
20 72
20 73
20 77
20 78
20 81
20 83
20 87
20 93
20 98
20 100
21 26
21 28
21 35
21 46
21 47
21 49
21 51
21 54
21 55
21 57
21 59
21 61
21 62
21 64
21 73
21 81
21 83
21 96
21 97
21 98
21 100
22 24
22 26
22 28
22 31
22 32
22 34
22 41
22 42
22 43
22 44
22 45
22 49
22 51
22 53
22 57
22 58
22 59
22 62
22 67
22 68
22 69
22 70
22 71
22 73
22 77
22 85
22 87
22 89
22 90
22 91
22 92
22 97
22 98
22 99
23 26
23 29
23 30
23 36
23 37
23 38
23 41
23 43
23 46
23 47
23 52
23 54
23 55
23 66
23 69
23 76
23 78
23 89
23 91
23 92
23 94
23 97
23 100
24 28
24 30
24 34
24 43
24 45
24 46
24 50
24 51
24 55
24 56
24 57
24 58
24 60
24 64
24 69
24 71
24 72
24 76
24 85
24 86
24 90
24 100
25 26
25 29
25 30
25 36
25 37
25 39
25 42
25 43
25 45
25 46
25 47
25 54
25 55
25 57
25 61
25 62
25 64
25 65
25 71
25 73
25 76
25 80
25 82
25 87
25 88
25 91
25 92
25 94
25 97
25 98
25 100
26 27
26 29
26 30
26 34
26 35
26 38
26 40
26 41
26 42
26 44
26 47
26 49
26 50
26 51
26 52
26 54
26 61
26 62
26 65
26 66
26 67
26 68
26 69
26 71
26 72
26 73
26 76
26 78
26 80
26 84
26 85
26 88
26 89
26 91
26 93
26 94
27 28
27 29
27 31
27 35
27 36
27 39
27 44
27 45
27 46
27 47
27 48
27 49
27 51
27 52
27 53
27 54
27 56
27 60
27 64
27 65
27 67
27 69
27 72
27 74
27 78
27 79
27 83
27 84
27 90
27 91
27 96
28 29
28 34
28 37
28 38
28 39
28 42
28 44
28 46
28 48
28 50
28 51
28 52
28 53
28 55
28 57
28 62
28 65
28 67
28 70
28 71
28 72
28 77
28 78
28 81
28 83
28 85
28 88
28 89
28 90
28 91
28 94
28 96
28 99
29 33
29 35
29 39
29 42
29 54
29 58
29 59
29 60
29 61
29 62
29 64
29 65
29 72
29 83
29 84
29 88
29 93
29 96
29 97
29 98
29 99
30 33
30 37
30 40
30 42
30 43
30 45
30 47
30 49
30 50
30 51
30 54
30 55
30 60
30 64
30 67
30 68
30 69
30 75
30 77
30 79
30 81
30 82
30 86
30 88
30 89
30 91
30 94
30 98
31 32
31 35
31 44
31 48
31 51
31 52
31 57
31 58
31 60
31 66
31 67
31 69
31 70
31 72
31 74
31 75
31 76
31 77
31 83
31 84
31 85
31 86
31 90
31 94
31 95
31 96
31 98
32 33
32 35
32 37
32 39
32 41
32 46
32 54
32 57
32 61
32 67
32 70
32 72
32 74
32 75
32 79
32 80
32 84
32 88
32 89
32 90
32 94
33 37
33 38
33 41
33 43
33 46
33 48
33 50
33 52
33 58
33 59
33 65
33 66
33 67
33 68
33 69
33 70
33 71
33 74
33 79
33 81
33 84
33 85
33 87
33 88
33 89
33 90
33 92
33 93
33 94
33 95
33 99
33 100
34 36
34 37
34 38
34 43
34 44
34 45
34 46
34 47
34 48
34 49
34 50
34 52
34 54
34 55
34 62
34 68
34 70
34 73
34 74
34 75
34 77
34 80
34 81
34 84
34 88
34 89
34 90
34 92
34 94
34 96
34 98
35 39
35 40
35 41
35 42
35 43
35 46
35 47
35 49
35 53
35 61
35 68
35 70
35 71
35 73
35 75
35 77
35 78
35 83
35 86
35 88
35 90
35 93
35 94
36 38
36 41
36 45
36 46
36 47
36 49
36 52
36 55
36 59
36 66
36 68
36 69
36 71
36 72
36 74
36 75
36 79
36 82
36 85
36 86
36 88
36 89
36 91
36 93
36 96
36 98
36 100
37 45
37 48
37 49
37 51
37 54
37 58
37 59
37 61
37 63
37 70
37 72
37 73
37 74
37 75
37 78
37 81
37 82
37 84
37 85
37 86
37 88
37 96
37 99
38 39
38 41
38 42
38 48
38 50
38 56
38 59
38 60
38 62
38 64
38 66
38 70
38 74
38 79
38 80
38 81
38 84
38 86
38 88
38 98
38 99
39 40
39 43
39 47
39 48
39 51
39 52
39 55
39 56
39 57
39 59
39 60
39 61
39 65
39 67
39 70
39 76
39 79
39 81
39 85
39 90
39 92
39 93
39 96
39 97
39 100
40 44
40 45
40 47
40 52
40 58
40 60
40 61
40 62
40 63
40 64
40 65
40 70
40 77
40 80
40 87
40 90
40 91
40 94
40 95
40 97
40 99
41 44
41 46
41 47
41 48
41 49
41 57
41 58
41 60
41 62
41 70
41 72
41 77
41 78
41 82
41 87
41 90
41 93
41 95
42 43
42 44
42 46
42 50
42 58
42 60
42 61
42 64
42 73
42 74
42 78
42 80
42 81
42 82
42 83
42 85
42 87
42 90
42 92
42 94
42 95
42 96
42 99
43 44
43 51
43 53
43 54
43 60
43 63
43 64
43 65
43 70
43 72
43 73
43 74
43 75
43 78
43 83
43 91
43 95
43 96
43 97
43 99
43 100
44 46
44 47
44 49
44 52
44 53
44 54
44 61
44 65
44 66
44 69
44 70
44 71
44 72
44 75
44 77
44 84
44 86
44 88
44 94
44 95
44 98
45 53
45 55
45 57
45 59
45 60
45 66
45 67
45 68
45 69
45 72
45 73
45 78
45 79
45 83
45 88
45 90
45 91
45 94
45 97
45 100
46 50
46 51
46 58
46 61
46 62
46 64
46 67
46 72
46 78
46 85
46 87
46 88
46 89
46 90
46 92
46 93
46 96
46 99
47 49
47 53
47 55
47 62
47 63
47 69
47 71
47 73
47 75
47 76
47 79
47 82
47 83
47 86
47 87
47 90
47 97
47 98
47 99
48 49
48 50
48 51
48 55
48 57
48 60
48 61
48 66
48 67
48 68
48 70
48 72
48 77
48 78
48 79
48 82
48 88
48 89
48 91
48 92
48 96
48 97
48 99
49 51
49 53
49 55
49 56
49 62
49 63
49 64
49 65
49 71
49 72
49 76
49 80
49 81
49 82
49 83
49 88
49 90
49 92
49 95
49 99
50 51
50 52
50 54
50 55
50 56
50 58
50 59
50 64
50 65
50 67
50 72
50 73
50 74
50 75
50 77
50 78
50 82
50 83
50 84
50 85
50 86
50 87
50 90
50 91
50 93
50 95
50 98
51 54
51 56
51 57
51 58
51 59
51 60
51 66
51 68
51 69
51 70
51 71
51 73
51 78
51 83
51 84
51 85
51 86
51 88
51 89
51 91
51 92
51 93
51 94
52 55
52 57
52 60
52 62
52 66
52 67
52 68
52 69
52 72
52 75
52 76
52 80
52 84
52 85
52 86
52 89
52 92
52 93
52 99
53 55
53 60
53 64
53 66
53 71
53 75
53 76
53 80
53 84
53 88
53 89
53 93
53 96
53 98
53 99
54 61
54 62
54 64
54 67
54 73
54 74
54 76
54 77
54 78
54 79
54 80
54 82
54 83
54 91
54 96
54 98
54 99
55 57
55 58
55 60
55 62
55 67
55 68
55 69
55 71
55 73
55 74
55 77
55 78
55 80
55 82
55 85
55 88
55 94
55 98
55 99
56 61
56 62
56 67
56 69
56 72
56 74
56 76
56 77
56 78
56 80
56 81
56 83
56 85
56 88
56 90
56 92
56 93
56 97
56 100
57 60
57 61
57 63
57 65
57 66
57 67
57 72
57 74
57 76
57 78
57 79
57 80
57 81
57 82
57 83
57 84
57 86
57 90
57 92
57 93
57 95
57 96
57 99
58 59
58 60
58 71
58 72
58 74
58 75
58 76
58 78
58 79
58 80
58 82
58 83
58 91
58 92
58 93
58 96
58 97
58 100
59 60
59 61
59 63
59 66
59 70
59 73
59 74
59 81
59 84
59 86
59 90
59 96
59 98
59 99
59 100
60 61
60 62
60 63
60 66
60 67
60 69
60 70
60 71
60 72
60 74
60 77
60 79
60 80
60 81
60 82
60 84
60 87
60 90
60 91
60 95
60 96
61 64
61 66
61 67
61 73
61 78
61 79
61 85
61 92
61 94
61 97
61 99
61 100
62 64
62 65
62 66
62 68
62 69
62 72
62 83
62 84
62 85
62 86
62 89
62 90
62 91
62 93
62 94
62 96
62 99
63 64
63 66
63 67
63 71
63 72
63 77
63 78
63 80
63 84
63 87
63 94
63 99
64 66
64 69
64 70
64 71
64 72
64 76
64 78
64 80
64 88
64 89
64 92
64 95
64 96
64 97
64 98
64 100
65 67
65 70
65 72
65 74
65 75
65 77
65 83
65 84
65 86
65 87
65 89
65 90
65 91
65 92
65 94
65 95
65 97
65 98
65 100
66 69
66 71
66 75
66 77
66 78
66 82
66 85
66 86
66 88
66 90
66 91
66 92
66 94
66 96
66 99
67 69
67 70
67 72
67 75
67 76
67 78
67 79
67 80
67 83
67 94
67 97
67 99
68 69
68 75
68 76
68 78
68 79
68 84
68 86
68 89
68 92
68 94
68 98
68 100
69 72
69 74
69 75
69 77
69 78
69 79
69 81
69 83
69 84
69 85
69 86
69 88
69 89
69 90
69 92
69 95
69 96
69 97
69 99
70 72
70 77
70 82
70 84
70 85
70 88
70 89
70 90
70 94
70 97
70 100
71 74
71 76
71 80
71 81
71 83
71 84
71 85
71 88
71 90
71 92
71 96
71 98
72 73
72 74
72 75
72 76
72 78
72 80
72 86
72 89
72 90
72 91
72 92
72 97
73 74
73 78
73 79
73 80
73 82
73 83
73 85
73 86
73 91
73 94
74 75
74 84
74 87
74 88
74 89
74 90
74 91
74 92
74 94
74 95
74 97
74 99
75 76
75 84
75 87
75 89
75 90
75 92
75 93
75 96
75 97
75 99
76 77
76 79
76 83
76 89
76 90
76 94
76 97
76 99
76 100
77 78
77 80
77 82
77 84
77 85
77 88
77 93
77 94
77 95
77 97
78 79
78 81
78 86
78 87
78 88
78 90
78 94
78 96
78 97
78 99
79 84
79 86
79 88
79 89
79 91
79 98
80 82
80 83
80 86
80 87
80 89
80 92
80 94
80 95
80 97
80 98
80 99
81 85
81 87
81 89
81 90
81 91
81 93
81 99
82 85
82 88
82 89
82 90
82 91
82 94
82 95
82 96
82 98
82 99
82 100
83 86
83 87
83 90
83 91
83 94
83 96
83 98
84 87
84 88
84 89
84 92
84 94
84 95
85 90
85 91
85 93
85 94
85 97
85 98
85 100
86 89
86 90
86 91
86 92
86 95
86 96
86 97
86 99
87 89
87 97
87 99
87 100
88 89
88 91
88 96
88 97
88 98
88 100
89 91
89 94
89 96
89 97
90 92
90 94
90 98
90 100
91 92
91 95
91 96
91 97
91 98
91 99
91 100
92 93
92 96
92 99
92 100
93 95
93 97
94 98
94 99
95 98
95 100
96 98
96 99
96 100
98 99
98 100
